; benchmark generated from python API
(set-info :status unknown)
(declare-fun A_2 () Real)
(declare-fun S_2 () Real)
(declare-fun L_1 () Real)
(declare-fun S_1 () Real)
(declare-fun A_1 () Real)
(declare-fun A_0 () Real)
(declare-fun L_0 () Real)
(declare-fun S_0 () Real)
(declare-fun B () Real)
(assert
 (let (($x523 (<= (+ A_0 (* (- 1.0) S_1) (* (- 1.0) L_1) (* (- 1.0) B)) 0.0)))
 (let (($x540 (<= (+ (* (- 1.0) S_2) (* (- 1.0) L_1) (* (- 1.0) B) A_1) 0.0)))
 (let (($x658 (>= B 0.0)))
 (let (($x1017 (<= (+ (* (/ 1.0 2.0) A_0) (* (- (/ 1.0 2.0)) S_2) (* (- (/ 1.0 2.0)) L_0)) 0.0)))
 (let ((?x731 (* (- 2.0) A_1)))
 (let ((?x738 (* 2.0 B)))
 (let ((?x741 (* 2.0 L_1)))
 (let ((?x320 (* (- 1.0) L_0)))
 (let (($x659 (= B 0.0)))
 (let (($x538 (<= (+ (* (- 1.0) A_0) S_0 L_1 B) 0.0)))
 (let ((?x329 (* (- 1.0) L_1)))
 (let (($x287 (= ?x329 ?x320)))
 (and (<= ?x329 ?x320) (or $x287 $x538 (<= (+ S_1 L_1 B (* (- 1.0) A_1)) 0.0)) (or $x287 $x538 $x659 (<= (+ A_0 S_2 ?x320 ?x741 ?x738 ?x731) 0.0)) (or (<= (+ ?x329 A_1 (* (- 1.0) S_2)) 0.0) $x1017) $x658 $x540 (<= (+ (* (- 1.0) S_2) S_1) 0.0) $x523 (<= (+ (* (- 1.0) S_1) S_0) 0.0) (<= (+ S_0 L_0 (* (- 1.0) A_0)) 0.0) (<= (+ L_1 (* (- 1.0) A_1) S_1) 0.0) (<= (+ L_1 S_2 (* (- 1.0) A_2)) 0.0)))))))))))))))
(check-sat)
